p cnf 302 2268
72 149 168 243 0
145 165 189 245 0
157 176 200 0
127 171 252 255 0
123 139 212 0
119 262 0
108 114 116 142 267 0
46 49 102 104 137 159 0
77 136 271 0
143 152 204 273 0
185 193 196 0
39 156 199 0
113 163 203 0
131 174 181 206 209 0
121 153 211 213 0
178 215 216 0
96 100 0
85 87 92 93 0
83 84 109 111 0
78 81 82 134 183 0
73 74 141 150 0
67 69 70 146 187 0
64 66 128 172 180 207 0
62 63 170 0
59 61 122 210 0
56 57 0
53 55 98 120 166 0
51 52 89 0
50 101 106 117 0
44 45 48 0
43 76 80 135 0
41 42 140 148 0
35 37 154 161 201 0
124 218 219 220 0
214 221 0
217 222 223 224 0
86 88 94 225 0
110 112 226 0
227 229 230 231 232 234 0
75 79 184 235 236 0
68 151 0
147 190 237 0
177 239 240 241 0
65 71 244 0
188 246 247 0
58 60 248 288 0
54 167 250 0
99 251 253 254 0
90 256 257 260 0
47 103 105 160 263 265 0
107 266 268 0
194 198 269 0
36 40 272 0
164 205 274 0
132 192 275 0
95 97 0
-159 -276 0
-185 -276 0
-199 -276 0
-113 -276 0
-159 -185 0
-159 -199 0
-113 -159 0
-185 -199 0
-113 -185 0
-113 -199 0
-153 -206 0
-84 -206 0
-206 -277 0
-206 -233 0
-84 -153 0
-153 -277 0
-153 -233 0
-84 -277 0
-84 -233 0
-233 -277 0
-70 -82 0
-82 -191 0
-66 -82 0
-63 -82 0
-61 -82 0
-57 -82 0
-70 -191 0
-66 -70 0
-63 -70 0
-61 -70 0
-57 -70 0
-66 -191 0
-63 -191 0
-61 -191 0
-57 -191 0
-63 -66 0
-61 -66 0
-57 -66 0
-61 -63 0
-57 -63 0
-57 -61 0
-120 -278 0
-106 -120 0
-43 -120 0
-42 -120 0
-120 -169 0
-120 -270 0
-106 -278 0
-43 -278 0
-42 -278 0
-169 -278 0
-270 -278 0
-43 -106 0
-42 -106 0
-106 -169 0
-106 -270 0
-42 -43 0
-43 -169 0
-43 -270 0
-42 -169 0
-42 -270 0
-169 -270 0
-154 -175 0
-124 -154 0
-154 -222 0
-154 -281 0
-94 -154 0
-154 -226 0
-124 -175 0
-175 -222 0
-175 -281 0
-94 -175 0
-175 -226 0
-124 -222 0
-124 -281 0
-94 -124 0
-124 -226 0
-222 -281 0
-94 -222 0
-222 -226 0
-94 -281 0
-226 -281 0
-94 -226 0
-256 -263 0
-256 -282 0
-256 -266 0
-256 -283 0
-263 -282 0
-263 -266 0
-263 -283 0
-266 -282 0
-282 -283 0
-266 -283 0
-275 -284 0
-275 -285 0
-179 -275 0
-97 -275 0
-284 -285 0
-179 -284 0
-97 -284 0
-179 -285 0
-97 -285 0
-97 -179 0
-206 -276 0
-82 -276 0
-120 -276 0
-154 -276 0
-82 -206 0
-120 -206 0
-154 -206 0
-82 -120 0
-82 -154 0
-120 -154 0
-153 -159 0
-70 -159 0
-159 -278 0
-159 -175 0
-70 -153 0
-153 -278 0
-153 -175 0
-70 -278 0
-70 -175 0
-175 -278 0
-106 -191 0
-124 -191 0
-191 -256 0
-191 -275 0
-106 -124 0
-106 -256 0
-106 -275 0
-124 -256 0
-124 -275 0
-256 -275 0
-43 -66 0
-66 -222 0
-66 -263 0
-66 -284 0
-43 -222 0
-43 -263 0
-43 -284 0
-222 -263 0
-222 -284 0
-263 -284 0
-84 -185 0
-63 -185 0
-42 -185 0
-185 -281 0
-185 -282 0
-185 -285 0
-63 -84 0
-42 -84 0
-84 -281 0
-84 -282 0
-84 -285 0
-42 -63 0
-63 -281 0
-63 -282 0
-63 -285 0
-42 -281 0
-42 -282 0
-42 -285 0
-281 -282 0
-281 -285 0
-282 -285 0
-199 -277 0
-61 -199 0
-169 -199 0
-94 -199 0
-199 -266 0
-179 -199 0
-61 -277 0
-169 -277 0
-94 -277 0
-266 -277 0
-179 -277 0
-61 -169 0
-61 -94 0
-61 -266 0
-61 -179 0
-94 -169 0
-169 -266 0
-169 -179 0
-94 -266 0
-94 -179 0
-179 -266 0
-113 -233 0
-57 -113 0
-113 -270 0
-113 -226 0
-113 -283 0
-97 -113 0
-57 -233 0
-233 -270 0
-226 -233 0
-233 -283 0
-97 -233 0
-57 -270 0
-57 -226 0
-57 -283 0
-57 -97 0
-226 -270 0
-270 -283 0
-97 -270 0
-226 -283 0
-97 -226 0
-97 -283 0
-123 -286 0
-166 -258 0
-41 -166 0
-166 -195 0
-41 -258 0
-195 -258 0
-41 -195 0
-37 -182 0
-37 -287 0
-37 -112 0
-182 -287 0
-112 -182 0
-112 -287 0
-227 -235 0
-227 -239 0
-235 -239 0
-60 -251 0
-60 -160 0
-160 -251 0
-37 -166 0
-166 -227 0
-60 -166 0
-37 -227 0
-37 -60 0
-60 -227 0
-182 -258 0
-235 -258 0
-251 -258 0
-182 -235 0
-182 -251 0
-235 -251 0
-160 -239 0
-41 -123 0
-123 -287 0
-41 -287 0
-195 -286 0
-112 -286 0
-112 -195 0
-145 -149 0
-149 -176 0
-149 -289 0
-149 -249 0
-145 -176 0
-145 -289 0
-145 -249 0
-176 -289 0
-176 -249 0
-249 -289 0
-91 -114 0
-91 -102 0
-91 -290 0
-77 -91 0
-102 -114 0
-114 -290 0
-77 -114 0
-102 -290 0
-77 -102 0
-77 -290 0
-74 -81 0
-69 -81 0
-81 -138 0
-81 -158 0
-69 -74 0
-74 -138 0
-74 -158 0
-69 -138 0
-69 -158 0
-138 -158 0
-52 -55 0
-55 -291 0
-55 -117 0
-48 -55 0
-52 -291 0
-52 -117 0
-48 -52 0
-117 -291 0
-48 -291 0
-48 -117 0
-229 -292 0
-79 -229 0
-79 -292 0
-91 -149 0
-81 -149 0
-55 -149 0
-149 -229 0
-81 -91 0
-55 -91 0
-91 -229 0
-55 -81 0
-81 -229 0
-55 -229 0
-114 -145 0
-74 -145 0
-52 -145 0
-145 -292 0
-74 -114 0
-52 -114 0
-114 -292 0
-52 -74 0
-74 -292 0
-52 -292 0
-102 -176 0
-69 -176 0
-176 -291 0
-79 -176 0
-69 -102 0
-102 -291 0
-79 -102 0
-69 -291 0
-69 -79 0
-79 -291 0
-289 -290 0
-138 -289 0
-117 -289 0
-138 -290 0
-117 -290 0
-117 -138 0
-77 -249 0
-158 -249 0
-48 -249 0
-77 -158 0
-48 -77 0
-48 -158 0
-165 -168 0
-168 -200 0
-168 -293 0
-129 -168 0
-168 -171 0
-165 -200 0
-165 -293 0
-129 -165 0
-165 -171 0
-200 -293 0
-129 -200 0
-171 -200 0
-129 -293 0
-171 -293 0
-129 -171 0
-142 -294 0
-137 -294 0
-294 -295 0
-136 -294 0
-152 -294 0
-137 -142 0
-142 -295 0
-136 -142 0
-142 -152 0
-137 -295 0
-136 -137 0
-137 -152 0
-136 -295 0
-152 -295 0
-136 -152 0
-73 -134 0
-67 -134 0
-134 -238 0
-134 -242 0
-64 -134 0
-122 -134 0
-67 -73 0
-73 -238 0
-73 -242 0
-64 -73 0
-73 -122 0
-67 -238 0
-67 -242 0
-64 -67 0
-67 -122 0
-238 -242 0
-64 -238 0
-122 -238 0
-64 -242 0
-122 -242 0
-64 -122 0
-51 -53 0
-53 -261 0
-50 -53 0
-45 -53 0
-53 -80 0
-53 -144 0
-51 -261 0
-50 -51 0
-45 -51 0
-51 -80 0
-51 -144 0
-50 -261 0
-45 -261 0
-80 -261 0
-144 -261 0
-45 -50 0
-50 -80 0
-50 -144 0
-45 -80 0
-45 -144 0
-80 -144 0
-35 -296 0
-35 -133 0
-35 -218 0
-35 -214 0
-35 -217 0
-35 -88 0
-133 -296 0
-218 -296 0
-214 -296 0
-217 -296 0
-88 -296 0
-133 -218 0
-133 -214 0
-133 -217 0
-88 -133 0
-214 -218 0
-217 -218 0
-88 -218 0
-214 -217 0
-88 -214 0
-88 -217 0
-230 -297 0
-184 -230 0
-151 -230 0
-147 -230 0
-177 -230 0
-184 -297 0
-151 -297 0
-147 -297 0
-177 -297 0
-151 -184 0
-147 -184 0
-177 -184 0
-147 -151 0
-151 -177 0
-147 -177 0
-250 -288 0
-99 -288 0
-90 -288 0
-115 -288 0
-103 -288 0
-99 -250 0
-90 -250 0
-115 -250 0
-103 -250 0
-90 -99 0
-99 -115 0
-99 -103 0
-90 -115 0
-90 -103 0
-103 -115 0
-168 -294 0
-134 -168 0
-53 -168 0
-35 -168 0
-168 -230 0
-168 -288 0
-134 -294 0
-53 -294 0
-35 -294 0
-230 -294 0
-288 -294 0
-53 -134 0
-35 -134 0
-134 -230 0
-134 -288 0
-35 -53 0
-53 -230 0
-53 -288 0
-35 -230 0
-35 -288 0
-230 -288 0
-142 -165 0
-73 -165 0
-51 -165 0
-165 -296 0
-165 -297 0
-165 -250 0
-73 -142 0
-51 -142 0
-142 -296 0
-142 -297 0
-142 -250 0
-51 -73 0
-73 -296 0
-73 -297 0
-73 -250 0
-51 -296 0
-51 -297 0
-51 -250 0
-296 -297 0
-250 -296 0
-250 -297 0
-137 -200 0
-67 -200 0
-200 -261 0
-133 -200 0
-184 -200 0
-99 -200 0
-67 -137 0
-137 -261 0
-133 -137 0
-137 -184 0
-99 -137 0
-67 -261 0
-67 -133 0
-67 -184 0
-67 -99 0
-133 -261 0
-184 -261 0
-99 -261 0
-133 -184 0
-99 -133 0
-99 -184 0
-293 -295 0
-238 -293 0
-50 -293 0
-218 -293 0
-151 -293 0
-90 -293 0
-238 -295 0
-50 -295 0
-218 -295 0
-151 -295 0
-90 -295 0
-50 -238 0
-218 -238 0
-151 -238 0
-90 -238 0
-50 -218 0
-50 -151 0
-50 -90 0
-151 -218 0
-90 -218 0
-90 -151 0
-129 -136 0
-129 -242 0
-45 -129 0
-129 -214 0
-129 -147 0
-115 -129 0
-136 -242 0
-45 -136 0
-136 -214 0
-136 -147 0
-115 -136 0
-45 -242 0
-214 -242 0
-147 -242 0
-115 -242 0
-45 -214 0
-45 -147 0
-45 -115 0
-147 -214 0
-115 -214 0
-115 -147 0
-152 -171 0
-64 -171 0
-80 -171 0
-171 -217 0
-171 -177 0
-103 -171 0
-64 -152 0
-80 -152 0
-152 -217 0
-152 -177 0
-103 -152 0
-64 -80 0
-64 -217 0
-64 -177 0
-64 -103 0
-80 -217 0
-80 -177 0
-80 -103 0
-177 -217 0
-103 -217 0
-103 -177 0
-122 -144 0
-88 -122 0
-88 -144 0
-72 -189 0
-72 -252 0
-72 -119 0
-72 -264 0
-189 -252 0
-119 -189 0
-189 -264 0
-119 -252 0
-252 -264 0
-119 -264 0
-108 -280 0
-204 -280 0
-156 -280 0
-203 -280 0
-108 -204 0
-108 -156 0
-108 -203 0
-156 -204 0
-203 -204 0
-156 -203 0
-126 -174 0
-93 -174 0
-174 -298 0
-174 -299 0
-93 -126 0
-126 -298 0
-126 -299 0
-93 -298 0
-93 -299 0
-298 -299 0
-86 -110 0
-231 -300 0
-72 -280 0
-72 -174 0
-72 -231 0
-174 -280 0
-231 -280 0
-174 -231 0
-108 -189 0
-126 -189 0
-189 -300 0
-108 -126 0
-108 -300 0
-126 -300 0
-204 -252 0
-93 -252 0
-93 -204 0
-119 -156 0
-119 -298 0
-86 -119 0
-156 -298 0
-86 -156 0
-86 -298 0
-203 -264 0
-264 -299 0
-110 -264 0
-203 -299 0
-110 -203 0
-110 -299 0
-104 -259 0
-193 -259 0
-39 -259 0
-163 -259 0
-104 -193 0
-39 -104 0
-104 -163 0
-39 -193 0
-163 -193 0
-39 -163 0
-121 -181 0
-111 -181 0
-181 -228 0
-181 -301 0
-111 -121 0
-121 -228 0
-121 -301 0
-111 -228 0
-111 -301 0
-228 -301 0
-172 -302 0
-170 -302 0
-59 -302 0
-56 -302 0
-170 -172 0
-59 -172 0
-56 -172 0
-59 -170 0
-56 -170 0
-56 -59 0
-44 -135 0
-44 -148 0
-44 -186 0
-34 -44 0
-135 -148 0
-135 -186 0
-34 -135 0
-148 -186 0
-34 -148 0
-34 -186 0
-232 -236 0
-190 -232 0
-232 -240 0
-71 -232 0
-188 -232 0
-33 -232 0
-190 -236 0
-236 -240 0
-71 -236 0
-188 -236 0
-33 -236 0
-190 -240 0
-71 -190 0
-188 -190 0
-33 -190 0
-71 -240 0
-188 -240 0
-33 -240 0
-71 -188 0
-33 -71 0
-33 -188 0
-58 -253 0
-58 -118 0
-58 -265 0
-58 -279 0
-58 -107 0
-32 -58 0
-118 -253 0
-253 -265 0
-253 -279 0
-107 -253 0
-32 -253 0
-118 -265 0
-118 -279 0
-107 -118 0
-32 -118 0
-265 -279 0
-107 -265 0
-32 -265 0
-107 -279 0
-32 -279 0
-32 -107 0
-205 -269 0
-155 -269 0
-202 -269 0
-173 -269 0
-125 -269 0
-95 -269 0
-155 -205 0
-202 -205 0
-173 -205 0
-125 -205 0
-95 -205 0
-155 -202 0
-155 -173 0
-125 -155 0
-95 -155 0
-173 -202 0
-125 -202 0
-95 -202 0
-125 -173 0
-95 -173 0
-95 -125 0
-181 -259 0
-232 -259 0
-58 -259 0
-259 -269 0
-181 -232 0
-58 -181 0
-181 -269 0
-58 -232 0
-232 -269 0
-58 -269 0
-104 -121 0
-104 -236 0
-104 -253 0
-104 -205 0
-121 -236 0
-121 -253 0
-121 -205 0
-236 -253 0
-205 -236 0
-205 -253 0
-44 -302 0
-190 -302 0
-118 -302 0
-155 -302 0
-44 -190 0
-44 -118 0
-44 -155 0
-118 -190 0
-155 -190 0
-118 -155 0
-135 -172 0
-172 -240 0
-172 -265 0
-172 -202 0
-135 -240 0
-135 -265 0
-135 -202 0
-240 -265 0
-202 -240 0
-202 -265 0
-111 -193 0
-170 -193 0
-148 -193 0
-71 -193 0
-193 -279 0
-173 -193 0
-111 -170 0
-111 -148 0
-71 -111 0
-111 -279 0
-111 -173 0
-148 -170 0
-71 -170 0
-170 -279 0
-170 -173 0
-71 -148 0
-148 -279 0
-148 -173 0
-71 -279 0
-71 -173 0
-173 -279 0
-39 -228 0
-39 -59 0
-39 -186 0
-39 -188 0
-39 -107 0
-39 -125 0
-59 -228 0
-186 -228 0
-188 -228 0
-107 -228 0
-125 -228 0
-59 -186 0
-59 -188 0
-59 -107 0
-59 -125 0
-186 -188 0
-107 -186 0
-125 -186 0
-107 -188 0
-125 -188 0
-107 -125 0
-163 -301 0
-56 -163 0
-34 -163 0
-33 -163 0
-32 -163 0
-95 -163 0
-56 -301 0
-34 -301 0
-33 -301 0
-32 -301 0
-95 -301 0
-34 -56 0
-33 -56 0
-32 -56 0
-56 -95 0
-33 -34 0
-32 -34 0
-34 -95 0
-32 -33 0
-33 -95 0
-32 -95 0
-243 -245 0
-157 -243 0
-31 -243 0
-30 -243 0
-127 -243 0
-212 -243 0
-157 -245 0
-31 -245 0
-30 -245 0
-127 -245 0
-212 -245 0
-31 -157 0
-30 -157 0
-127 -157 0
-157 -212 0
-30 -31 0
-31 -127 0
-31 -212 0
-30 -127 0
-30 -212 0
-127 -212 0
-29 -116 0
-29 -49 0
-29 -197 0
-29 -271 0
-29 -273 0
-29 -196 0
-49 -116 0
-116 -197 0
-116 -271 0
-116 -273 0
-116 -196 0
-49 -197 0
-49 -271 0
-49 -273 0
-49 -196 0
-197 -271 0
-197 -273 0
-196 -197 0
-271 -273 0
-196 -271 0
-196 -273 0
-28 -209 0
-209 -211 0
-209 -215 0
-100 -209 0
-92 -209 0
-83 -209 0
-28 -211 0
-28 -215 0
-28 -100 0
-28 -92 0
-28 -83 0
-211 -215 0
-100 -211 0
-92 -211 0
-83 -211 0
-100 -215 0
-92 -215 0
-83 -215 0
-92 -100 0
-83 -100 0
-83 -92 0
-78 -141 0
-78 -187 0
-26 -78 0
-25 -78 0
-78 -180 0
-141 -187 0
-26 -141 0
-25 -141 0
-141 -180 0
-26 -187 0
-25 -187 0
-180 -187 0
-25 -26 0
-26 -180 0
-25 -180 0
-24 -201 0
-23 -201 0
-201 -219 0
-201 -221 0
-201 -223 0
-23 -24 0
-24 -219 0
-24 -221 0
-24 -223 0
-23 -219 0
-23 -221 0
-23 -223 0
-219 -221 0
-219 -223 0
-221 -223 0
-167 -248 0
-248 -254 0
-248 -257 0
-22 -248 0
-105 -248 0
-167 -254 0
-167 -257 0
-22 -167 0
-105 -167 0
-254 -257 0
-22 -254 0
-105 -254 0
-22 -257 0
-105 -257 0
-22 -105 0
-40 -194 0
-164 -194 0
-192 -194 0
-38 -194 0
-162 -194 0
-40 -164 0
-40 -192 0
-38 -40 0
-40 -162 0
-164 -192 0
-38 -164 0
-162 -164 0
-38 -192 0
-162 -192 0
-38 -162 0
-29 -243 0
-209 -243 0
-78 -243 0
-201 -243 0
-243 -248 0
-194 -243 0
-29 -209 0
-29 -78 0
-29 -201 0
-29 -248 0
-29 -194 0
-78 -209 0
-201 -209 0
-209 -248 0
-194 -209 0
-78 -201 0
-78 -248 0
-78 -194 0
-201 -248 0
-194 -201 0
-194 -248 0
-116 -245 0
-28 -245 0
-141 -245 0
-24 -245 0
-167 -245 0
-40 -245 0
-28 -116 0
-116 -141 0
-24 -116 0
-116 -167 0
-40 -116 0
-28 -141 0
-24 -28 0
-28 -167 0
-28 -40 0
-24 -141 0
-141 -167 0
-40 -141 0
-24 -167 0
-24 -40 0
-40 -167 0
-49 -157 0
-157 -211 0
-157 -187 0
-23 -157 0
-157 -254 0
-157 -164 0
-49 -211 0
-49 -187 0
-23 -49 0
-49 -254 0
-49 -164 0
-187 -211 0
-23 -211 0
-211 -254 0
-164 -211 0
-23 -187 0
-187 -254 0
-164 -187 0
-23 -254 0
-23 -164 0
-164 -254 0
-31 -197 0
-31 -215 0
-26 -31 0
-31 -219 0
-31 -257 0
-31 -192 0
-197 -215 0
-26 -197 0
-197 -219 0
-197 -257 0
-192 -197 0
-26 -215 0
-215 -219 0
-215 -257 0
-192 -215 0
-26 -219 0
-26 -257 0
-26 -192 0
-219 -257 0
-192 -219 0
-192 -257 0
-30 -271 0
-30 -100 0
-25 -30 0
-30 -221 0
-22 -30 0
-30 -38 0
-100 -271 0
-25 -271 0
-221 -271 0
-22 -271 0
-38 -271 0
-25 -100 0
-100 -221 0
-22 -100 0
-38 -100 0
-25 -221 0
-22 -25 0
-25 -38 0
-22 -221 0
-38 -221 0
-22 -38 0
-127 -273 0
-92 -127 0
-127 -180 0
-127 -223 0
-105 -127 0
-127 -162 0
-92 -273 0
-180 -273 0
-223 -273 0
-105 -273 0
-162 -273 0
-92 -180 0
-92 -223 0
-92 -105 0
-92 -162 0
-180 -223 0
-105 -180 0
-162 -180 0
-105 -223 0
-162 -223 0
-105 -162 0
-196 -212 0
-83 -212 0
-83 -196 0
-21 -267 0
-21 -46 0
-19 -21 0
-21 -143 0
-46 -267 0
-19 -267 0
-143 -267 0
-19 -46 0
-46 -143 0
-19 -143 0
-18 -131 0
-131 -213 0
-131 -216 0
-87 -131 0
-18 -213 0
-18 -216 0
-18 -87 0
-213 -216 0
-87 -213 0
-87 -216 0
-150 -183 0
-146 -183 0
-16 -183 0
-183 -207 0
-62 -183 0
-183 -210 0
-146 -150 0
-16 -150 0
-150 -207 0
-62 -150 0
-150 -210 0
-16 -146 0
-146 -207 0
-62 -146 0
-146 -210 0
-16 -207 0
-16 -62 0
-16 -210 0
-62 -207 0
-207 -210 0
-62 -210 0
-89 -98 0
-15 -98 0
-98 -101 0
-76 -98 0
-98 -140 0
-14 -98 0
-15 -89 0
-89 -101 0
-76 -89 0
-89 -140 0
-14 -89 0
-15 -101 0
-15 -76 0
-15 -140 0
-14 -15 0
-76 -101 0
-101 -140 0
-14 -101 0
-76 -140 0
-14 -76 0
-14 -140 0
-13 -161 0
-12 -161 0
-161 -220 0
-161 -224 0
-11 -161 0
-161 -225 0
-12 -13 0
-13 -220 0
-13 -224 0
-11 -13 0
-13 -225 0
-12 -220 0
-12 -224 0
-11 -12 0
-12 -225 0
-220 -224 0
-11 -220 0
-220 -225 0
-11 -224 0
-224 -225 0
-11 -225 0
-10 -234 0
-75 -234 0
-234 -244 0
-234 -246 0
-10 -75 0
-10 -244 0
-10 -246 0
-75 -244 0
-75 -246 0
-244 -246 0
-198 -272 0
-198 -274 0
-198 -208 0
-27 -198 0
-272 -274 0
-208 -272 0
-27 -272 0
-208 -274 0
-27 -274 0
-27 -208 0
-21 -131 0
-21 -183 0
-21 -98 0
-21 -161 0
-21 -234 0
-21 -198 0
-131 -183 0
-98 -131 0
-131 -161 0
-131 -234 0
-131 -198 0
-98 -183 0
-161 -183 0
-183 -234 0
-183 -198 0
-98 -161 0
-98 -234 0
-98 -198 0
-161 -234 0
-161 -198 0
-198 -234 0
-18 -267 0
-150 -267 0
-89 -267 0
-13 -267 0
-10 -267 0
-267 -272 0
-18 -150 0
-18 -89 0
-13 -18 0
-10 -18 0
-18 -272 0
-89 -150 0
-13 -150 0
-10 -150 0
-150 -272 0
-13 -89 0
-10 -89 0
-89 -272 0
-10 -13 0
-13 -272 0
-10 -272 0
-46 -213 0
-46 -146 0
-15 -46 0
-12 -46 0
-46 -75 0
-46 -274 0
-146 -213 0
-15 -213 0
-12 -213 0
-75 -213 0
-213 -274 0
-15 -146 0
-12 -146 0
-75 -146 0
-146 -274 0
-12 -15 0
-15 -75 0
-15 -274 0
-12 -75 0
-12 -274 0
-75 -274 0
-19 -216 0
-16 -19 0
-19 -101 0
-19 -220 0
-16 -216 0
-101 -216 0
-216 -220 0
-16 -101 0
-16 -220 0
-101 -220 0
-87 -143 0
-143 -207 0
-76 -143 0
-143 -224 0
-87 -207 0
-76 -87 0
-87 -224 0
-76 -207 0
-207 -224 0
-76 -224 0
-62 -140 0
-11 -62 0
-62 -244 0
-62 -208 0
-11 -140 0
-140 -244 0
-140 -208 0
-11 -244 0
-11 -208 0
-208 -244 0
-14 -210 0
-210 -225 0
-210 -246 0
-27 -210 0
-14 -225 0
-14 -246 0
-14 -27 0
-225 -246 0
-27 -225 0
-27 -246 0
-8 -9 0
-9 -255 0
-9 -139 0
-9 -262 0
-8 -255 0
-8 -139 0
-8 -262 0
-139 -255 0
-255 -262 0
-139 -262 0
-96 -178 0
-85 -178 0
-109 -178 0
-7 -178 0
-85 -96 0
-96 -109 0
-7 -96 0
-85 -109 0
-7 -85 0
-7 -109 0
-5 -6 0
-6 -128 0
-5 -128 0
-4 -68 0
-4 -237 0
-4 -241 0
-4 -65 0
-4 -247 0
-68 -237 0
-68 -241 0
-65 -68 0
-68 -247 0
-237 -241 0
-65 -237 0
-237 -247 0
-65 -241 0
-241 -247 0
-65 -247 0
-54 -260 0
-3 -54 0
-47 -54 0
-20 -54 0
-54 -268 0
-3 -260 0
-47 -260 0
-20 -260 0
-260 -268 0
-3 -47 0
-3 -20 0
-3 -268 0
-20 -47 0
-47 -268 0
-20 -268 0
-36 -132 0
-2 -36 0
-1 -36 0
-36 -130 0
-17 -36 0
-2 -132 0
-1 -132 0
-130 -132 0
-17 -132 0
-1 -2 0
-2 -130 0
-2 -17 0
-1 -130 0
-1 -17 0
-17 -130 0
-4 -54 0
-4 -36 0
-36 -54 0
-9 -178 0
-6 -9 0
-9 -68 0
-9 -260 0
-9 -132 0
-6 -178 0
-68 -178 0
-178 -260 0
-132 -178 0
-6 -68 0
-6 -260 0
-6 -132 0
-68 -260 0
-68 -132 0
-132 -260 0
-8 -96 0
-5 -8 0
-8 -237 0
-3 -8 0
-2 -8 0
-5 -96 0
-96 -237 0
-3 -96 0
-2 -96 0
-5 -237 0
-3 -5 0
-2 -5 0
-3 -237 0
-2 -237 0
-2 -3 0
-85 -255 0
-128 -255 0
-241 -255 0
-47 -255 0
-1 -255 0
-85 -128 0
-85 -241 0
-47 -85 0
-1 -85 0
-128 -241 0
-47 -128 0
-1 -128 0
-47 -241 0
-1 -241 0
-1 -47 0
-109 -139 0
-65 -139 0
-20 -139 0
-130 -139 0
-65 -109 0
-20 -109 0
-109 -130 0
-20 -65 0
-65 -130 0
-20 -130 0
-7 -262 0
-247 -262 0
-262 -268 0
-17 -262 0
-7 -247 0
-7 -268 0
-7 -17 0
-247 -268 0
-17 -247 0
-17 -268 0
-159 -276 0
-206 -276 0
-153 -276 0
-159 -206 0
-153 -159 0
-153 -206 0
-145 -149 0
-149 -176 0
-91 -149 0
-114 -149 0
-102 -149 0
-145 -176 0
-91 -145 0
-114 -145 0
-102 -145 0
-91 -176 0
-114 -176 0
-102 -176 0
-91 -114 0
-91 -102 0
-102 -114 0
-165 -168 0
-168 -200 0
-168 -294 0
-142 -168 0
-137 -168 0
-165 -200 0
-165 -294 0
-142 -165 0
-137 -165 0
-200 -294 0
-142 -200 0
-137 -200 0
-142 -294 0
-137 -294 0
-137 -142 0
-72 -189 0
-72 -280 0
-72 -108 0
-72 -174 0
-72 -126 0
-189 -280 0
-108 -189 0
-174 -189 0
-126 -189 0
-108 -280 0
-174 -280 0
-126 -280 0
-108 -174 0
-108 -126 0
-126 -174 0
-104 -259 0
-181 -259 0
-121 -259 0
-104 -181 0
-104 -121 0
-121 -181 0
-243 -245 0
-157 -243 0
-29 -243 0
-116 -243 0
-49 -243 0
-209 -243 0
-28 -243 0
-211 -243 0
-157 -245 0
-29 -245 0
-116 -245 0
-49 -245 0
-209 -245 0
-28 -245 0
-211 -245 0
-29 -157 0
-116 -157 0
-49 -157 0
-157 -209 0
-28 -157 0
-157 -211 0
-29 -116 0
-29 -49 0
-29 -209 0
-28 -29 0
-29 -211 0
-49 -116 0
-116 -209 0
-28 -116 0
-116 -211 0
-49 -209 0
-28 -49 0
-49 -211 0
-28 -209 0
-209 -211 0
-28 -211 0
-21 -267 0
-21 -46 0
-21 -131 0
-18 -21 0
-21 -213 0
-46 -267 0
-131 -267 0
-18 -267 0
-213 -267 0
-46 -131 0
-18 -46 0
-46 -213 0
-18 -131 0
-131 -213 0
-18 -213 0
-249 -289 0
-289 -290 0
-77 -289 0
-249 -290 0
-77 -249 0
-77 -290 0
-129 -293 0
-171 -293 0
-293 -295 0
-136 -293 0
-152 -293 0
-129 -171 0
-129 -295 0
-129 -136 0
-129 -152 0
-171 -295 0
-136 -171 0
-152 -171 0
-136 -295 0
-152 -295 0
-136 -152 0
-204 -252 0
-93 -252 0
-93 -204 0
-30 -31 0
-31 -127 0
-31 -197 0
-31 -271 0
-31 -273 0
-31 -215 0
-31 -100 0
-31 -92 0
-30 -127 0
-30 -197 0
-30 -271 0
-30 -273 0
-30 -215 0
-30 -100 0
-30 -92 0
-127 -197 0
-127 -271 0
-127 -273 0
-127 -215 0
-100 -127 0
-92 -127 0
-197 -271 0
-197 -273 0
-197 -215 0
-100 -197 0
-92 -197 0
-271 -273 0
-215 -271 0
-100 -271 0
-92 -271 0
-215 -273 0
-100 -273 0
-92 -273 0
-100 -215 0
-92 -215 0
-92 -100 0
-19 -143 0
-19 -216 0
-19 -87 0
-143 -216 0
-87 -143 0
-87 -216 0
-8 -9 0
-9 -255 0
-9 -178 0
-9 -96 0
-9 -85 0
-8 -255 0
-8 -178 0
-8 -96 0
-8 -85 0
-178 -255 0
-96 -255 0
-85 -255 0
-96 -178 0
-85 -178 0
-85 -96 0
-185 -199 0
-113 -185 0
-84 -185 0
-185 -277 0
-185 -233 0
-113 -199 0
-84 -199 0
-199 -277 0
-199 -233 0
-84 -113 0
-113 -277 0
-113 -233 0
-84 -277 0
-84 -233 0
-233 -277 0
-123 -286 0
-119 -264 0
-119 -156 0
-119 -203 0
-119 -298 0
-119 -299 0
-156 -264 0
-203 -264 0
-264 -298 0
-264 -299 0
-156 -203 0
-156 -298 0
-156 -299 0
-203 -298 0
-203 -299 0
-298 -299 0
-39 -193 0
-163 -193 0
-111 -193 0
-193 -228 0
-193 -301 0
-39 -163 0
-39 -111 0
-39 -228 0
-39 -301 0
-111 -163 0
-163 -228 0
-163 -301 0
-111 -228 0
-111 -301 0
-228 -301 0
-196 -212 0
-83 -212 0
-83 -196 0
-139 -262 0
-109 -139 0
-7 -139 0
-109 -262 0
-7 -262 0
-7 -109 0
-70 -82 0
-82 -120 0
-82 -278 0
-82 -154 0
-82 -175 0
-70 -120 0
-70 -278 0
-70 -154 0
-70 -175 0
-120 -278 0
-120 -154 0
-120 -175 0
-154 -278 0
-175 -278 0
-154 -175 0
-166 -258 0
-37 -166 0
-166 -182 0
-37 -258 0
-182 -258 0
-37 -182 0
-74 -81 0
-69 -81 0
-55 -81 0
-52 -81 0
-81 -291 0
-69 -74 0
-55 -74 0
-52 -74 0
-74 -291 0
-55 -69 0
-52 -69 0
-69 -291 0
-52 -55 0
-55 -291 0
-52 -291 0
-73 -134 0
-67 -134 0
-53 -134 0
-51 -134 0
-134 -261 0
-35 -134 0
-134 -296 0
-133 -134 0
-67 -73 0
-53 -73 0
-51 -73 0
-73 -261 0
-35 -73 0
-73 -296 0
-73 -133 0
-53 -67 0
-51 -67 0
-67 -261 0
-35 -67 0
-67 -296 0
-67 -133 0
-51 -53 0
-53 -261 0
-35 -53 0
-53 -296 0
-53 -133 0
-51 -261 0
-35 -51 0
-51 -296 0
-51 -133 0
-35 -261 0
-261 -296 0
-133 -261 0
-35 -296 0
-35 -133 0
-133 -296 0
-78 -141 0
-78 -187 0
-78 -201 0
-24 -78 0
-23 -78 0
-141 -187 0
-141 -201 0
-24 -141 0
-23 -141 0
-187 -201 0
-24 -187 0
-23 -187 0
-24 -201 0
-23 -201 0
-23 -24 0
-150 -183 0
-146 -183 0
-98 -183 0
-89 -183 0
-15 -183 0
-161 -183 0
-13 -183 0
-12 -183 0
-146 -150 0
-98 -150 0
-89 -150 0
-15 -150 0
-150 -161 0
-13 -150 0
-12 -150 0
-98 -146 0
-89 -146 0
-15 -146 0
-146 -161 0
-13 -146 0
-12 -146 0
-89 -98 0
-15 -98 0
-98 -161 0
-13 -98 0
-12 -98 0
-15 -89 0
-89 -161 0
-13 -89 0
-12 -89 0
-15 -161 0
-13 -15 0
-12 -15 0
-13 -161 0
-12 -161 0
-12 -13 0
-66 -191 0
-106 -191 0
-43 -191 0
-124 -191 0
-191 -222 0
-66 -106 0
-43 -66 0
-66 -124 0
-66 -222 0
-43 -106 0
-106 -124 0
-106 -222 0
-43 -124 0
-43 -222 0
-124 -222 0
-138 -158 0
-117 -138 0
-48 -138 0
-117 -158 0
-48 -158 0
-48 -117 0
-238 -242 0
-64 -238 0
-50 -238 0
-45 -238 0
-80 -238 0
-218 -238 0
-214 -238 0
-217 -238 0
-64 -242 0
-50 -242 0
-45 -242 0
-80 -242 0
-218 -242 0
-214 -242 0
-217 -242 0
-50 -64 0
-45 -64 0
-64 -80 0
-64 -218 0
-64 -214 0
-64 -217 0
-45 -50 0
-50 -80 0
-50 -218 0
-50 -214 0
-50 -217 0
-45 -80 0
-45 -218 0
-45 -214 0
-45 -217 0
-80 -218 0
-80 -214 0
-80 -217 0
-214 -218 0
-217 -218 0
-214 -217 0
-172 -302 0
-44 -302 0
-135 -302 0
-44 -172 0
-135 -172 0
-44 -135 0
-25 -26 0
-26 -180 0
-26 -219 0
-26 -221 0
-26 -223 0
-25 -180 0
-25 -219 0
-25 -221 0
-25 -223 0
-180 -219 0
-180 -221 0
-180 -223 0
-219 -221 0
-219 -223 0
-221 -223 0
-16 -207 0
-16 -101 0
-16 -76 0
-16 -220 0
-16 -224 0
-101 -207 0
-76 -207 0
-207 -220 0
-207 -224 0
-76 -101 0
-101 -220 0
-101 -224 0
-76 -220 0
-76 -224 0
-220 -224 0
-5 -6 0
-6 -128 0
-5 -128 0
-61 -63 0
-57 -63 0
-42 -63 0
-63 -169 0
-63 -270 0
-63 -281 0
-63 -94 0
-63 -226 0
-57 -61 0
-42 -61 0
-61 -169 0
-61 -270 0
-61 -281 0
-61 -94 0
-61 -226 0
-42 -57 0
-57 -169 0
-57 -270 0
-57 -281 0
-57 -94 0
-57 -226 0
-42 -169 0
-42 -270 0
-42 -281 0
-42 -94 0
-42 -226 0
-169 -270 0
-169 -281 0
-94 -169 0
-169 -226 0
-270 -281 0
-94 -270 0
-226 -270 0
-94 -281 0
-226 -281 0
-94 -226 0
-41 -195 0
-41 -287 0
-41 -112 0
-195 -287 0
-112 -195 0
-112 -287 0
-122 -144 0
-88 -122 0
-88 -144 0
-86 -110 0
-59 -170 0
-56 -170 0
-148 -170 0
-170 -186 0
-34 -170 0
-56 -59 0
-59 -148 0
-59 -186 0
-34 -59 0
-56 -148 0
-56 -186 0
-34 -56 0
-148 -186 0
-34 -148 0
-34 -186 0
-62 -210 0
-62 -140 0
-14 -62 0
-11 -62 0
-62 -225 0
-140 -210 0
-14 -210 0
-11 -210 0
-210 -225 0
-14 -140 0
-11 -140 0
-140 -225 0
-11 -14 0
-14 -225 0
-11 -225 0
-227 -235 0
-60 -227 0
-227 -251 0
-60 -235 0
-235 -251 0
-60 -251 0
-229 -292 0
-79 -229 0
-79 -292 0
-230 -297 0
-184 -230 0
-230 -288 0
-230 -250 0
-99 -230 0
-184 -297 0
-288 -297 0
-250 -297 0
-99 -297 0
-184 -288 0
-184 -250 0
-99 -184 0
-250 -288 0
-99 -288 0
-99 -250 0
-231 -300 0
-232 -236 0
-58 -232 0
-232 -253 0
-232 -269 0
-205 -232 0
-58 -236 0
-236 -253 0
-236 -269 0
-205 -236 0
-58 -253 0
-58 -269 0
-58 -205 0
-253 -269 0
-205 -253 0
-205 -269 0
-167 -248 0
-248 -254 0
-194 -248 0
-40 -248 0
-164 -248 0
-167 -254 0
-167 -194 0
-40 -167 0
-164 -167 0
-194 -254 0
-40 -254 0
-164 -254 0
-40 -194 0
-164 -194 0
-40 -164 0
-10 -234 0
-75 -234 0
-198 -234 0
-234 -272 0
-234 -274 0
-10 -75 0
-10 -198 0
-10 -272 0
-10 -274 0
-75 -198 0
-75 -272 0
-75 -274 0
-198 -272 0
-198 -274 0
-272 -274 0
-4 -54 0
-4 -36 0
-36 -54 0
-256 -263 0
-256 -275 0
-256 -284 0
-263 -275 0
-263 -284 0
-275 -284 0
-160 -239 0
-147 -151 0
-151 -177 0
-90 -151 0
-115 -151 0
-103 -151 0
-147 -177 0
-90 -147 0
-115 -147 0
-103 -147 0
-90 -177 0
-115 -177 0
-103 -177 0
-90 -115 0
-90 -103 0
-103 -115 0
-190 -240 0
-118 -190 0
-190 -265 0
-155 -190 0
-190 -202 0
-118 -240 0
-240 -265 0
-155 -240 0
-202 -240 0
-118 -265 0
-118 -155 0
-118 -202 0
-155 -265 0
-202 -265 0
-155 -202 0
-22 -257 0
-105 -257 0
-192 -257 0
-38 -257 0
-162 -257 0
-22 -105 0
-22 -192 0
-22 -38 0
-22 -162 0
-105 -192 0
-38 -105 0
-105 -162 0
-38 -192 0
-162 -192 0
-38 -162 0
-68 -237 0
-68 -241 0
-68 -260 0
-3 -68 0
-47 -68 0
-68 -132 0
-2 -68 0
-1 -68 0
-237 -241 0
-237 -260 0
-3 -237 0
-47 -237 0
-132 -237 0
-2 -237 0
-1 -237 0
-241 -260 0
-3 -241 0
-47 -241 0
-132 -241 0
-2 -241 0
-1 -241 0
-3 -260 0
-47 -260 0
-132 -260 0
-2 -260 0
-1 -260 0
-3 -47 0
-3 -132 0
-2 -3 0
-1 -3 0
-47 -132 0
-2 -47 0
-1 -47 0
-2 -132 0
-1 -132 0
-1 -2 0
-266 -282 0
-282 -283 0
-282 -285 0
-179 -282 0
-97 -282 0
-266 -283 0
-266 -285 0
-179 -266 0
-97 -266 0
-283 -285 0
-179 -283 0
-97 -283 0
-179 -285 0
-97 -285 0
-97 -179 0
-71 -188 0
-33 -71 0
-71 -279 0
-71 -107 0
-32 -71 0
-71 -173 0
-71 -125 0
-71 -95 0
-33 -188 0
-188 -279 0
-107 -188 0
-32 -188 0
-173 -188 0
-125 -188 0
-95 -188 0
-33 -279 0
-33 -107 0
-32 -33 0
-33 -173 0
-33 -125 0
-33 -95 0
-107 -279 0
-32 -279 0
-173 -279 0
-125 -279 0
-95 -279 0
-32 -107 0
-107 -173 0
-107 -125 0
-95 -107 0
-32 -173 0
-32 -125 0
-32 -95 0
-125 -173 0
-95 -173 0
-95 -125 0
-244 -246 0
-208 -244 0
-27 -244 0
-208 -246 0
-27 -246 0
-27 -208 0
-65 -247 0
-20 -65 0
-65 -268 0
-65 -130 0
-17 -65 0
-20 -247 0
-247 -268 0
-130 -247 0
-17 -247 0
-20 -268 0
-20 -130 0
-17 -20 0
-130 -268 0
-17 -268 0
-17 -130 0
